; benchmark generated from python API
(set-info :status unknown)
(declare-fun cell_1_1 () Int)
(declare-fun cell_2_1 () Int)
(declare-fun cell_3_1 () Int)
(declare-fun cell_4_1 () Int)
(declare-fun cell_5_1 () Int)
(declare-fun cell_6_1 () Int)
(declare-fun cell_7_1 () Int)
(declare-fun cell_8_1 () Int)
(declare-fun cell_9_1 () Int)
(declare-fun cell_1_2 () Int)
(declare-fun cell_2_2 () Int)
(declare-fun cell_3_2 () Int)
(declare-fun cell_4_2 () Int)
(declare-fun cell_5_2 () Int)
(declare-fun cell_6_2 () Int)
(declare-fun cell_7_2 () Int)
(declare-fun cell_8_2 () Int)
(declare-fun cell_9_2 () Int)
(declare-fun cell_1_3 () Int)
(declare-fun cell_2_3 () Int)
(declare-fun cell_3_3 () Int)
(declare-fun cell_4_3 () Int)
(declare-fun cell_5_3 () Int)
(declare-fun cell_6_3 () Int)
(declare-fun cell_7_3 () Int)
(declare-fun cell_8_3 () Int)
(declare-fun cell_9_3 () Int)
(declare-fun cell_1_4 () Int)
(declare-fun cell_2_4 () Int)
(declare-fun cell_3_4 () Int)
(declare-fun cell_4_4 () Int)
(declare-fun cell_5_4 () Int)
(declare-fun cell_6_4 () Int)
(declare-fun cell_7_4 () Int)
(declare-fun cell_8_4 () Int)
(declare-fun cell_9_4 () Int)
(declare-fun cell_1_5 () Int)
(declare-fun cell_2_5 () Int)
(declare-fun cell_3_5 () Int)
(declare-fun cell_4_5 () Int)
(declare-fun cell_5_5 () Int)
(declare-fun cell_6_5 () Int)
(declare-fun cell_7_5 () Int)
(declare-fun cell_8_5 () Int)
(declare-fun cell_9_5 () Int)
(declare-fun cell_1_6 () Int)
(declare-fun cell_2_6 () Int)
(declare-fun cell_3_6 () Int)
(declare-fun cell_4_6 () Int)
(declare-fun cell_5_6 () Int)
(declare-fun cell_6_6 () Int)
(declare-fun cell_7_6 () Int)
(declare-fun cell_8_6 () Int)
(declare-fun cell_9_6 () Int)
(declare-fun cell_1_7 () Int)
(declare-fun cell_2_7 () Int)
(declare-fun cell_3_7 () Int)
(declare-fun cell_4_7 () Int)
(declare-fun cell_5_7 () Int)
(declare-fun cell_6_7 () Int)
(declare-fun cell_7_7 () Int)
(declare-fun cell_8_7 () Int)
(declare-fun cell_9_7 () Int)
(declare-fun cell_1_8 () Int)
(declare-fun cell_2_8 () Int)
(declare-fun cell_3_8 () Int)
(declare-fun cell_4_8 () Int)
(declare-fun cell_5_8 () Int)
(declare-fun cell_6_8 () Int)
(declare-fun cell_7_8 () Int)
(declare-fun cell_8_8 () Int)
(declare-fun cell_9_8 () Int)
(declare-fun cell_1_9 () Int)
(declare-fun cell_2_9 () Int)
(declare-fun cell_3_9 () Int)
(declare-fun cell_4_9 () Int)
(declare-fun cell_5_9 () Int)
(declare-fun cell_6_9 () Int)
(declare-fun cell_7_9 () Int)
(declare-fun cell_8_9 () Int)
(declare-fun cell_9_9 () Int)
(assert
 (let (($x8329 (= cell_1_1 9)))
 (let (($x5818 (= cell_1_1 8)))
 (let (($x9669 (= cell_1_1 7)))
 (let (($x8166 (= cell_1_1 6)))
 (let (($x10231 (= cell_1_1 5)))
 (let (($x2892 (= cell_1_1 4)))
 (let (($x8192 (= cell_1_1 3)))
 (let (($x3478 (= cell_1_1 2)))
 (let (($x9508 (= cell_1_1 1)))
 (or $x9508 $x3478 $x8192 $x2892 $x10231 $x8166 $x9669 $x5818 $x8329)))))))))))
(assert
 (let (($x3549 (= cell_2_1 9)))
 (let (($x2856 (= cell_2_1 8)))
 (let (($x837 (= cell_2_1 7)))
 (let (($x8494 (= cell_2_1 6)))
 (let (($x5436 (= cell_2_1 5)))
 (let (($x8003 (= cell_2_1 4)))
 (let (($x3315 (= cell_2_1 3)))
 (let (($x9774 (= cell_2_1 2)))
 (let (($x3150 (= cell_2_1 1)))
 (or $x3150 $x9774 $x3315 $x8003 $x5436 $x8494 $x837 $x2856 $x3549)))))))))))
(assert
 (let (($x1452 (= cell_3_1 9)))
 (let (($x4396 (= cell_3_1 8)))
 (let (($x4875 (= cell_3_1 7)))
 (let (($x8656 (= cell_3_1 6)))
 (let (($x9426 (= cell_3_1 5)))
 (let (($x5465 (= cell_3_1 4)))
 (let (($x9482 (= cell_3_1 3)))
 (let (($x10082 (= cell_3_1 2)))
 (let (($x3214 (= cell_3_1 1)))
 (or $x3214 $x10082 $x9482 $x5465 $x9426 $x8656 $x4875 $x4396 $x1452)))))))))))
(assert
 (let (($x9983 (= cell_4_1 9)))
 (let (($x1867 (= cell_4_1 8)))
 (let (($x6178 (= cell_4_1 7)))
 (let (($x5626 (= cell_4_1 6)))
 (let (($x5837 (= cell_4_1 5)))
 (let (($x8632 (= cell_4_1 4)))
 (let (($x5462 (= cell_4_1 3)))
 (let (($x4980 (= cell_4_1 2)))
 (let (($x1050 (= cell_4_1 1)))
 (or $x1050 $x4980 $x5462 $x8632 $x5837 $x5626 $x6178 $x1867 $x9983)))))))))))
(assert
 (let (($x261 (= cell_5_1 9)))
 (let (($x3811 (= cell_5_1 8)))
 (let (($x9326 (= cell_5_1 7)))
 (let (($x6046 (= cell_5_1 6)))
 (let (($x8999 (= cell_5_1 5)))
 (let (($x7603 (= cell_5_1 4)))
 (let (($x7840 (= cell_5_1 3)))
 (let (($x3783 (= cell_5_1 2)))
 (let (($x10007 (= cell_5_1 1)))
 (or $x10007 $x3783 $x7840 $x7603 $x8999 $x6046 $x9326 $x3811 $x261)))))))))))
(assert
 (let (($x904 (= cell_6_1 9)))
 (let (($x3261 (= cell_6_1 8)))
 (let (($x8169 (= cell_6_1 7)))
 (let (($x3101 (= cell_6_1 6)))
 (let (($x1993 (= cell_6_1 5)))
 (let (($x8180 (= cell_6_1 4)))
 (let (($x8963 (= cell_6_1 3)))
 (let (($x9017 (= cell_6_1 2)))
 (let (($x8226 (= cell_6_1 1)))
 (or $x8226 $x9017 $x8963 $x8180 $x1993 $x3101 $x8169 $x3261 $x904)))))))))))
(assert
 (let (($x8901 (= cell_7_1 9)))
 (let (($x7810 (= cell_7_1 8)))
 (let (($x2814 (= cell_7_1 7)))
 (let (($x6219 (= cell_7_1 6)))
 (let (($x2216 (= cell_7_1 5)))
 (let (($x8577 (= cell_7_1 4)))
 (let (($x8692 (= cell_7_1 3)))
 (let (($x25 (= cell_7_1 2)))
 (let (($x4897 (= cell_7_1 1)))
 (or $x4897 $x25 $x8692 $x8577 $x2216 $x6219 $x2814 $x7810 $x8901)))))))))))
(assert
 (let (($x8534 (= cell_8_1 9)))
 (let (($x7844 (= cell_8_1 8)))
 (let (($x7740 (= cell_8_1 7)))
 (let (($x9252 (= cell_8_1 6)))
 (let (($x9932 (= cell_8_1 5)))
 (let (($x5508 (= cell_8_1 4)))
 (let (($x6341 (= cell_8_1 3)))
 (let (($x4049 (= cell_8_1 2)))
 (let (($x1738 (= cell_8_1 1)))
 (or $x1738 $x4049 $x6341 $x5508 $x9932 $x9252 $x7740 $x7844 $x8534)))))))))))
(assert
 (let (($x5996 (= cell_9_1 9)))
 (let (($x75 (= cell_9_1 8)))
 (let (($x9631 (= cell_9_1 7)))
 (let (($x9744 (= cell_9_1 6)))
 (let (($x1621 (= cell_9_1 5)))
 (let (($x4464 (= cell_9_1 4)))
 (let (($x793 (= cell_9_1 3)))
 (let (($x9503 (= cell_9_1 2)))
 (let (($x3666 (= cell_9_1 1)))
 (or $x3666 $x9503 $x793 $x4464 $x1621 $x9744 $x9631 $x75 $x5996)))))))))))
(assert
 (let (($x7000 (= cell_1_2 9)))
 (let (($x1894 (= cell_1_2 8)))
 (let (($x2373 (= cell_1_2 7)))
 (let (($x7668 (= cell_1_2 6)))
 (let (($x10258 (= cell_1_2 5)))
 (let (($x5309 (= cell_1_2 4)))
 (let (($x3158 (= cell_1_2 3)))
 (let (($x7580 (= cell_1_2 2)))
 (let (($x8789 (= cell_1_2 1)))
 (or $x8789 $x7580 $x3158 $x5309 $x10258 $x7668 $x2373 $x1894 $x7000)))))))))))
(assert
 (let (($x3230 (= cell_2_2 9)))
 (let (($x3229 (= cell_2_2 8)))
 (let (($x8387 (= cell_2_2 7)))
 (let (($x3474 (= cell_2_2 6)))
 (let (($x1464 (= cell_2_2 5)))
 (let (($x6873 (= cell_2_2 4)))
 (let (($x5589 (= cell_2_2 3)))
 (let (($x5986 (= cell_2_2 2)))
 (let (($x7886 (= cell_2_2 1)))
 (or $x7886 $x5986 $x5589 $x6873 $x1464 $x3474 $x8387 $x3229 $x3230)))))))))))
(assert
 (let (($x319 (= cell_3_2 9)))
 (let (($x2406 (= cell_3_2 8)))
 (let (($x4133 (= cell_3_2 7)))
 (let (($x7813 (= cell_3_2 6)))
 (let (($x77 (= cell_3_2 5)))
 (let (($x4515 (= cell_3_2 4)))
 (let (($x3435 (= cell_3_2 3)))
 (let (($x6659 (= cell_3_2 2)))
 (let (($x9925 (= cell_3_2 1)))
 (or $x9925 $x6659 $x3435 $x4515 $x77 $x7813 $x4133 $x2406 $x319)))))))))))
(assert
 (let (($x9707 (= cell_4_2 9)))
 (let (($x8880 (= cell_4_2 8)))
 (let (($x7393 (= cell_4_2 7)))
 (let (($x6843 (= cell_4_2 6)))
 (let (($x1066 (= cell_4_2 5)))
 (let (($x4227 (= cell_4_2 4)))
 (let (($x5717 (= cell_4_2 3)))
 (let (($x3078 (= cell_4_2 2)))
 (let (($x2988 (= cell_4_2 1)))
 (or $x2988 $x3078 $x5717 $x4227 $x1066 $x6843 $x7393 $x8880 $x9707)))))))))))
(assert
 (let (($x3892 (= cell_5_2 9)))
 (let (($x4157 (= cell_5_2 8)))
 (let (($x2968 (= cell_5_2 7)))
 (let (($x5572 (= cell_5_2 6)))
 (let (($x6963 (= cell_5_2 5)))
 (let (($x4557 (= cell_5_2 4)))
 (let (($x5373 (= cell_5_2 3)))
 (let (($x5924 (= cell_5_2 2)))
 (let (($x9188 (= cell_5_2 1)))
 (or $x9188 $x5924 $x5373 $x4557 $x6963 $x5572 $x2968 $x4157 $x3892)))))))))))
(assert
 (let (($x9698 (= cell_6_2 9)))
 (let (($x3646 (= cell_6_2 8)))
 (let (($x4122 (= cell_6_2 7)))
 (let (($x9857 (= cell_6_2 6)))
 (let (($x1478 (= cell_6_2 5)))
 (let (($x7571 (= cell_6_2 4)))
 (let (($x9626 (= cell_6_2 3)))
 (let (($x605 (= cell_6_2 2)))
 (let (($x7363 (= cell_6_2 1)))
 (or $x7363 $x605 $x9626 $x7571 $x1478 $x9857 $x4122 $x3646 $x9698)))))))))))
(assert
 (let (($x7559 (= cell_7_2 9)))
 (let (($x6729 (= cell_7_2 8)))
 (let (($x7474 (= cell_7_2 7)))
 (let (($x1169 (= cell_7_2 6)))
 (let (($x1968 (= cell_7_2 5)))
 (let (($x157 (= cell_7_2 4)))
 (let (($x10130 (= cell_7_2 3)))
 (let (($x7655 (= cell_7_2 2)))
 (let (($x264 (= cell_7_2 1)))
 (or $x264 $x7655 $x10130 $x157 $x1968 $x1169 $x7474 $x6729 $x7559)))))))))))
(assert
 (let (($x8962 (= cell_8_2 9)))
 (let (($x3876 (= cell_8_2 8)))
 (let (($x8607 (= cell_8_2 7)))
 (let (($x6395 (= cell_8_2 6)))
 (let (($x10092 (= cell_8_2 5)))
 (let (($x5368 (= cell_8_2 4)))
 (let (($x1227 (= cell_8_2 3)))
 (let (($x6449 (= cell_8_2 2)))
 (let (($x6073 (= cell_8_2 1)))
 (or $x6073 $x6449 $x1227 $x5368 $x10092 $x6395 $x8607 $x3876 $x8962)))))))))))
(assert
 (let (($x2523 (= cell_9_2 9)))
 (let (($x7640 (= cell_9_2 8)))
 (let (($x8059 (= cell_9_2 7)))
 (let (($x3292 (= cell_9_2 6)))
 (let (($x8122 (= cell_9_2 5)))
 (let (($x8040 (= cell_9_2 4)))
 (let (($x5486 (= cell_9_2 3)))
 (let (($x5246 (= cell_9_2 2)))
 (let (($x997 (= cell_9_2 1)))
 (or $x997 $x5246 $x5486 $x8040 $x8122 $x3292 $x8059 $x7640 $x2523)))))))))))
(assert
 (let (($x72 (= cell_1_3 9)))
 (let (($x2229 (= cell_1_3 8)))
 (let (($x6402 (= cell_1_3 7)))
 (let (($x1332 (= cell_1_3 6)))
 (let (($x4224 (= cell_1_3 5)))
 (let (($x10217 (= cell_1_3 4)))
 (let (($x4572 (= cell_1_3 3)))
 (let (($x5555 (= cell_1_3 2)))
 (let (($x5842 (= cell_1_3 1)))
 (or $x5842 $x5555 $x4572 $x10217 $x4224 $x1332 $x6402 $x2229 $x72)))))))))))
(assert
 (let (($x864 (= cell_2_3 9)))
 (let (($x5949 (= cell_2_3 8)))
 (let (($x9922 (= cell_2_3 7)))
 (let (($x982 (= cell_2_3 6)))
 (let (($x2796 (= cell_2_3 5)))
 (let (($x272 (= cell_2_3 4)))
 (let (($x9331 (= cell_2_3 3)))
 (let (($x4417 (= cell_2_3 2)))
 (let (($x7632 (= cell_2_3 1)))
 (or $x7632 $x4417 $x9331 $x272 $x2796 $x982 $x9922 $x5949 $x864)))))))))))
(assert
 (let (($x10195 (= cell_3_3 9)))
 (let (($x1506 (= cell_3_3 8)))
 (let (($x2338 (= cell_3_3 7)))
 (let (($x761 (= cell_3_3 6)))
 (let (($x3403 (= cell_3_3 5)))
 (let (($x5622 (= cell_3_3 4)))
 (let (($x8459 (= cell_3_3 3)))
 (let (($x74 (= cell_3_3 2)))
 (let (($x7915 (= cell_3_3 1)))
 (or $x7915 $x74 $x8459 $x5622 $x3403 $x761 $x2338 $x1506 $x10195)))))))))))
(assert
 (let (($x3590 (= cell_4_3 9)))
 (let (($x4210 (= cell_4_3 8)))
 (let (($x3770 (= cell_4_3 7)))
 (let (($x8077 (= cell_4_3 6)))
 (let (($x1171 (= cell_4_3 5)))
 (let (($x7446 (= cell_4_3 4)))
 (let (($x2638 (= cell_4_3 3)))
 (let (($x4490 (= cell_4_3 2)))
 (let (($x9550 (= cell_4_3 1)))
 (or $x9550 $x4490 $x2638 $x7446 $x1171 $x8077 $x3770 $x4210 $x3590)))))))))))
(assert
 (let (($x6061 (= cell_5_3 9)))
 (let (($x7259 (= cell_5_3 8)))
 (let (($x5798 (= cell_5_3 7)))
 (let (($x7140 (= cell_5_3 6)))
 (let (($x2797 (= cell_5_3 5)))
 (let (($x8442 (= cell_5_3 4)))
 (let (($x3025 (= cell_5_3 3)))
 (let (($x126 (= cell_5_3 2)))
 (let (($x1018 (= cell_5_3 1)))
 (or $x1018 $x126 $x3025 $x8442 $x2797 $x7140 $x5798 $x7259 $x6061)))))))))))
(assert
 (let (($x7518 (= cell_6_3 9)))
 (let (($x9208 (= cell_6_3 8)))
 (let (($x7509 (= cell_6_3 7)))
 (let (($x1679 (= cell_6_3 6)))
 (let (($x1901 (= cell_6_3 5)))
 (let (($x787 (= cell_6_3 4)))
 (let (($x7275 (= cell_6_3 3)))
 (let (($x3563 (= cell_6_3 2)))
 (let (($x4868 (= cell_6_3 1)))
 (or $x4868 $x3563 $x7275 $x787 $x1901 $x1679 $x7509 $x9208 $x7518)))))))))))
(assert
 (let (($x7566 (= cell_7_3 9)))
 (let (($x8616 (= cell_7_3 8)))
 (let (($x8 (= cell_7_3 7)))
 (let (($x2457 (= cell_7_3 6)))
 (let (($x641 (= cell_7_3 5)))
 (let (($x2130 (= cell_7_3 4)))
 (let (($x3175 (= cell_7_3 3)))
 (let (($x2758 (= cell_7_3 2)))
 (let (($x2402 (= cell_7_3 1)))
 (or $x2402 $x2758 $x3175 $x2130 $x641 $x2457 $x8 $x8616 $x7566)))))))))))
(assert
 (let (($x582 (= cell_8_3 9)))
 (let (($x5131 (= cell_8_3 8)))
 (let (($x7872 (= cell_8_3 7)))
 (let (($x3110 (= cell_8_3 6)))
 (let (($x2366 (= cell_8_3 5)))
 (let (($x5005 (= cell_8_3 4)))
 (let (($x670 (= cell_8_3 3)))
 (let (($x700 (= cell_8_3 2)))
 (let (($x4736 (= cell_8_3 1)))
 (or $x4736 $x700 $x670 $x5005 $x2366 $x3110 $x7872 $x5131 $x582)))))))))))
(assert
 (let (($x1811 (= cell_9_3 9)))
 (let (($x3582 (= cell_9_3 8)))
 (let (($x3970 (= cell_9_3 7)))
 (let (($x10058 (= cell_9_3 6)))
 (let (($x6587 (= cell_9_3 5)))
 (let (($x2908 (= cell_9_3 4)))
 (let (($x1933 (= cell_9_3 3)))
 (let (($x6295 (= cell_9_3 2)))
 (let (($x8145 (= cell_9_3 1)))
 (or $x8145 $x6295 $x1933 $x2908 $x6587 $x10058 $x3970 $x3582 $x1811)))))))))))
(assert
 (let (($x2445 (= cell_1_4 9)))
 (let (($x8488 (= cell_1_4 8)))
 (let (($x5184 (= cell_1_4 7)))
 (let (($x6661 (= cell_1_4 6)))
 (let (($x4910 (= cell_1_4 5)))
 (let (($x7765 (= cell_1_4 4)))
 (let (($x5686 (= cell_1_4 3)))
 (let (($x2613 (= cell_1_4 2)))
 (let (($x3507 (= cell_1_4 1)))
 (or $x3507 $x2613 $x5686 $x7765 $x4910 $x6661 $x5184 $x8488 $x2445)))))))))))
(assert
 (let (($x3433 (= cell_2_4 9)))
 (let (($x4012 (= cell_2_4 8)))
 (let (($x5494 (= cell_2_4 7)))
 (let (($x3513 (= cell_2_4 6)))
 (let (($x4996 (= cell_2_4 5)))
 (let (($x4262 (= cell_2_4 4)))
 (let (($x5708 (= cell_2_4 3)))
 (let (($x9104 (= cell_2_4 2)))
 (let (($x1687 (= cell_2_4 1)))
 (or $x1687 $x9104 $x5708 $x4262 $x4996 $x3513 $x5494 $x4012 $x3433)))))))))))
(assert
 (let (($x3523 (= cell_3_4 9)))
 (let (($x5684 (= cell_3_4 8)))
 (let (($x901 (= cell_3_4 7)))
 (let (($x5550 (= cell_3_4 6)))
 (let (($x8177 (= cell_3_4 5)))
 (let (($x9790 (= cell_3_4 4)))
 (let (($x10009 (= cell_3_4 3)))
 (let (($x1767 (= cell_3_4 2)))
 (let (($x2848 (= cell_3_4 1)))
 (or $x2848 $x1767 $x10009 $x9790 $x8177 $x5550 $x901 $x5684 $x3523)))))))))))
(assert
 (let (($x1583 (= cell_4_4 9)))
 (let (($x6372 (= cell_4_4 8)))
 (let (($x2248 (= cell_4_4 7)))
 (let (($x2003 (= cell_4_4 6)))
 (let (($x5871 (= cell_4_4 5)))
 (let (($x4397 (= cell_4_4 4)))
 (let (($x2206 (= cell_4_4 3)))
 (let (($x3237 (= cell_4_4 2)))
 (let (($x1479 (= cell_4_4 1)))
 (or $x1479 $x3237 $x2206 $x4397 $x5871 $x2003 $x2248 $x6372 $x1583)))))))))))
(assert
 (let (($x1698 (= cell_5_4 9)))
 (let (($x5577 (= cell_5_4 8)))
 (let (($x6904 (= cell_5_4 7)))
 (let (($x7812 (= cell_5_4 6)))
 (let (($x7492 (= cell_5_4 5)))
 (let (($x8630 (= cell_5_4 4)))
 (let (($x3699 (= cell_5_4 3)))
 (let (($x846 (= cell_5_4 2)))
 (let (($x8867 (= cell_5_4 1)))
 (or $x8867 $x846 $x3699 $x8630 $x7492 $x7812 $x6904 $x5577 $x1698)))))))))))
(assert
 (let (($x2619 (= cell_6_4 9)))
 (let (($x219 (= cell_6_4 8)))
 (let (($x1305 (= cell_6_4 7)))
 (let (($x1011 (= cell_6_4 6)))
 (let (($x238 (= cell_6_4 5)))
 (let (($x5610 (= cell_6_4 4)))
 (let (($x7129 (= cell_6_4 3)))
 (let (($x1382 (= cell_6_4 2)))
 (let (($x7395 (= cell_6_4 1)))
 (or $x7395 $x1382 $x7129 $x5610 $x238 $x1011 $x1305 $x219 $x2619)))))))))))
(assert
 (let (($x460 (= cell_7_4 9)))
 (let (($x5879 (= cell_7_4 8)))
 (let (($x5571 (= cell_7_4 7)))
 (let (($x4945 (= cell_7_4 6)))
 (let (($x3176 (= cell_7_4 5)))
 (let (($x6829 (= cell_7_4 4)))
 (let (($x2738 (= cell_7_4 3)))
 (let (($x8455 (= cell_7_4 2)))
 (let (($x2305 (= cell_7_4 1)))
 (or $x2305 $x8455 $x2738 $x6829 $x3176 $x4945 $x5571 $x5879 $x460)))))))))))
(assert
 (let (($x4330 (= cell_8_4 9)))
 (let (($x4141 (= cell_8_4 8)))
 (let (($x3718 (= cell_8_4 7)))
 (let (($x1608 (= cell_8_4 6)))
 (let (($x9934 (= cell_8_4 5)))
 (let (($x2623 (= cell_8_4 4)))
 (let (($x8800 (= cell_8_4 3)))
 (let (($x9792 (= cell_8_4 2)))
 (let (($x5468 (= cell_8_4 1)))
 (or $x5468 $x9792 $x8800 $x2623 $x9934 $x1608 $x3718 $x4141 $x4330)))))))))))
(assert
 (let (($x1875 (= cell_9_4 9)))
 (let (($x1547 (= cell_9_4 8)))
 (let (($x123 (= cell_9_4 7)))
 (let (($x9992 (= cell_9_4 6)))
 (let (($x1371 (= cell_9_4 5)))
 (let (($x4154 (= cell_9_4 4)))
 (let (($x2936 (= cell_9_4 3)))
 (let (($x5172 (= cell_9_4 2)))
 (let (($x7663 (= cell_9_4 1)))
 (or $x7663 $x5172 $x2936 $x4154 $x1371 $x9992 $x123 $x1547 $x1875)))))))))))
(assert
 (let (($x1721 (= cell_1_5 9)))
 (let (($x2349 (= cell_1_5 8)))
 (let (($x4468 (= cell_1_5 7)))
 (let (($x415 (= cell_1_5 6)))
 (let (($x5346 (= cell_1_5 5)))
 (let (($x1216 (= cell_1_5 4)))
 (let (($x812 (= cell_1_5 3)))
 (let (($x7325 (= cell_1_5 2)))
 (let (($x7490 (= cell_1_5 1)))
 (or $x7490 $x7325 $x812 $x1216 $x5346 $x415 $x4468 $x2349 $x1721)))))))))))
(assert
 (let (($x3920 (= cell_2_5 9)))
 (let (($x585 (= cell_2_5 8)))
 (let (($x2228 (= cell_2_5 7)))
 (let (($x1759 (= cell_2_5 6)))
 (let (($x7875 (= cell_2_5 5)))
 (let (($x4246 (= cell_2_5 4)))
 (let (($x4527 (= cell_2_5 3)))
 (let (($x5126 (= cell_2_5 2)))
 (let (($x1973 (= cell_2_5 1)))
 (or $x1973 $x5126 $x4527 $x4246 $x7875 $x1759 $x2228 $x585 $x3920)))))))))))
(assert
 (let (($x8783 (= cell_3_5 9)))
 (let (($x8736 (= cell_3_5 8)))
 (let (($x2745 (= cell_3_5 7)))
 (let (($x4906 (= cell_3_5 6)))
 (let (($x8470 (= cell_3_5 5)))
 (let (($x2763 (= cell_3_5 4)))
 (let (($x7114 (= cell_3_5 3)))
 (let (($x1489 (= cell_3_5 2)))
 (let (($x7306 (= cell_3_5 1)))
 (or $x7306 $x1489 $x7114 $x2763 $x8470 $x4906 $x2745 $x8736 $x8783)))))))))))
(assert
 (let (($x3694 (= cell_4_5 9)))
 (let (($x5719 (= cell_4_5 8)))
 (let (($x3780 (= cell_4_5 7)))
 (let (($x153 (= cell_4_5 6)))
 (let (($x6418 (= cell_4_5 5)))
 (let (($x5035 (= cell_4_5 4)))
 (let (($x7187 (= cell_4_5 3)))
 (let (($x1136 (= cell_4_5 2)))
 (let (($x7754 (= cell_4_5 1)))
 (or $x7754 $x1136 $x7187 $x5035 $x6418 $x153 $x3780 $x5719 $x3694)))))))))))
(assert
 (let (($x6709 (= cell_5_5 9)))
 (let (($x9451 (= cell_5_5 8)))
 (let (($x3074 (= cell_5_5 7)))
 (let (($x5816 (= cell_5_5 6)))
 (let (($x5997 (= cell_5_5 5)))
 (let (($x1103 (= cell_5_5 4)))
 (let (($x1712 (= cell_5_5 3)))
 (let (($x7971 (= cell_5_5 2)))
 (let (($x8742 (= cell_5_5 1)))
 (or $x8742 $x7971 $x1712 $x1103 $x5997 $x5816 $x3074 $x9451 $x6709)))))))))))
(assert
 (let (($x2080 (= cell_6_5 9)))
 (let (($x848 (= cell_6_5 8)))
 (let (($x3733 (= cell_6_5 7)))
 (let (($x9657 (= cell_6_5 6)))
 (let (($x3008 (= cell_6_5 5)))
 (let (($x4954 (= cell_6_5 4)))
 (let (($x4022 (= cell_6_5 3)))
 (let (($x5762 (= cell_6_5 2)))
 (let (($x9738 (= cell_6_5 1)))
 (or $x9738 $x5762 $x4022 $x4954 $x3008 $x9657 $x3733 $x848 $x2080)))))))))))
(assert
 (let (($x8234 (= cell_7_5 9)))
 (let (($x7389 (= cell_7_5 8)))
 (let (($x6394 (= cell_7_5 7)))
 (let (($x8533 (= cell_7_5 6)))
 (let (($x7173 (= cell_7_5 5)))
 (let (($x2663 (= cell_7_5 4)))
 (let (($x9227 (= cell_7_5 3)))
 (let (($x3113 (= cell_7_5 2)))
 (let (($x1457 (= cell_7_5 1)))
 (or $x1457 $x3113 $x9227 $x2663 $x7173 $x8533 $x6394 $x7389 $x8234)))))))))))
(assert
 (let (($x5994 (= cell_8_5 9)))
 (let (($x3367 (= cell_8_5 8)))
 (let (($x9610 (= cell_8_5 7)))
 (let (($x7972 (= cell_8_5 6)))
 (let (($x7364 (= cell_8_5 5)))
 (let (($x2289 (= cell_8_5 4)))
 (let (($x17 (= cell_8_5 3)))
 (let (($x8287 (= cell_8_5 2)))
 (let (($x6844 (= cell_8_5 1)))
 (or $x6844 $x8287 $x17 $x2289 $x7364 $x7972 $x9610 $x3367 $x5994)))))))))))
(assert
 (let (($x6879 (= cell_9_5 9)))
 (let (($x2949 (= cell_9_5 8)))
 (let (($x3300 (= cell_9_5 7)))
 (let (($x1969 (= cell_9_5 6)))
 (let (($x1756 (= cell_9_5 5)))
 (let (($x6437 (= cell_9_5 4)))
 (let (($x6733 (= cell_9_5 3)))
 (let (($x3781 (= cell_9_5 2)))
 (let (($x6590 (= cell_9_5 1)))
 (or $x6590 $x3781 $x6733 $x6437 $x1756 $x1969 $x3300 $x2949 $x6879)))))))))))
(assert
 (let (($x2716 (= cell_1_6 9)))
 (let (($x1821 (= cell_1_6 8)))
 (let (($x4181 (= cell_1_6 7)))
 (let (($x3842 (= cell_1_6 6)))
 (let (($x1317 (= cell_1_6 5)))
 (let (($x1491 (= cell_1_6 4)))
 (let (($x7332 (= cell_1_6 3)))
 (let (($x5271 (= cell_1_6 2)))
 (let (($x8400 (= cell_1_6 1)))
 (or $x8400 $x5271 $x7332 $x1491 $x1317 $x3842 $x4181 $x1821 $x2716)))))))))))
(assert
 (let (($x8423 (= cell_2_6 9)))
 (let (($x6424 (= cell_2_6 8)))
 (let (($x6823 (= cell_2_6 7)))
 (let (($x4644 (= cell_2_6 6)))
 (let (($x4595 (= cell_2_6 5)))
 (let (($x3741 (= cell_2_6 4)))
 (let (($x2644 (= cell_2_6 3)))
 (let (($x4677 (= cell_2_6 2)))
 (let (($x2316 (= cell_2_6 1)))
 (or $x2316 $x4677 $x2644 $x3741 $x4595 $x4644 $x6823 $x6424 $x8423)))))))))))
(assert
 (let (($x7499 (= cell_3_6 9)))
 (let (($x9807 (= cell_3_6 8)))
 (let (($x3016 (= cell_3_6 7)))
 (let (($x5754 (= cell_3_6 6)))
 (let (($x9870 (= cell_3_6 5)))
 (let (($x5159 (= cell_3_6 4)))
 (let (($x8977 (= cell_3_6 3)))
 (let (($x4898 (= cell_3_6 2)))
 (let (($x5848 (= cell_3_6 1)))
 (or $x5848 $x4898 $x8977 $x5159 $x9870 $x5754 $x3016 $x9807 $x7499)))))))))))
(assert
 (let (($x151 (= cell_4_6 9)))
 (let (($x6548 (= cell_4_6 8)))
 (let (($x1383 (= cell_4_6 7)))
 (let (($x3909 (= cell_4_6 6)))
 (let (($x190 (= cell_4_6 5)))
 (let (($x4900 (= cell_4_6 4)))
 (let (($x9488 (= cell_4_6 3)))
 (let (($x778 (= cell_4_6 2)))
 (let (($x3219 (= cell_4_6 1)))
 (or $x3219 $x778 $x9488 $x4900 $x190 $x3909 $x1383 $x6548 $x151)))))))))))
(assert
 (let (($x2696 (= cell_5_6 9)))
 (let (($x9302 (= cell_5_6 8)))
 (let (($x197 (= cell_5_6 7)))
 (let (($x9224 (= cell_5_6 6)))
 (let (($x8078 (= cell_5_6 5)))
 (let (($x9388 (= cell_5_6 4)))
 (let (($x6260 (= cell_5_6 3)))
 (let (($x1665 (= cell_5_6 2)))
 (let (($x4208 (= cell_5_6 1)))
 (or $x4208 $x1665 $x6260 $x9388 $x8078 $x9224 $x197 $x9302 $x2696)))))))))))
(assert
 (let (($x5336 (= cell_6_6 9)))
 (let (($x988 (= cell_6_6 8)))
 (let (($x1156 (= cell_6_6 7)))
 (let (($x7751 (= cell_6_6 6)))
 (let (($x4220 (= cell_6_6 5)))
 (let (($x295 (= cell_6_6 4)))
 (let (($x729 (= cell_6_6 3)))
 (let (($x2243 (= cell_6_6 2)))
 (let (($x7804 (= cell_6_6 1)))
 (or $x7804 $x2243 $x729 $x295 $x4220 $x7751 $x1156 $x988 $x5336)))))))))))
(assert
 (let (($x2546 (= cell_7_6 9)))
 (let (($x5478 (= cell_7_6 8)))
 (let (($x86 (= cell_7_6 7)))
 (let (($x5450 (= cell_7_6 6)))
 (let (($x9030 (= cell_7_6 5)))
 (let (($x1683 (= cell_7_6 4)))
 (let (($x7506 (= cell_7_6 3)))
 (let (($x8646 (= cell_7_6 2)))
 (let (($x3732 (= cell_7_6 1)))
 (or $x3732 $x8646 $x7506 $x1683 $x9030 $x5450 $x86 $x5478 $x2546)))))))))))
(assert
 (let (($x9191 (= cell_8_6 9)))
 (let (($x8517 (= cell_8_6 8)))
 (let (($x7769 (= cell_8_6 7)))
 (let (($x8813 (= cell_8_6 6)))
 (let (($x9210 (= cell_8_6 5)))
 (let (($x8625 (= cell_8_6 4)))
 (let (($x5277 (= cell_8_6 3)))
 (let (($x1204 (= cell_8_6 2)))
 (let (($x5710 (= cell_8_6 1)))
 (or $x5710 $x1204 $x5277 $x8625 $x9210 $x8813 $x7769 $x8517 $x9191)))))))))))
(assert
 (let (($x6120 (= cell_9_6 9)))
 (let (($x7999 (= cell_9_6 8)))
 (let (($x7662 (= cell_9_6 7)))
 (let (($x468 (= cell_9_6 6)))
 (let (($x6375 (= cell_9_6 5)))
 (let (($x8634 (= cell_9_6 4)))
 (let (($x2239 (= cell_9_6 3)))
 (let (($x337 (= cell_9_6 2)))
 (let (($x1948 (= cell_9_6 1)))
 (or $x1948 $x337 $x2239 $x8634 $x6375 $x468 $x7662 $x7999 $x6120)))))))))))
(assert
 (let (($x5906 (= cell_1_7 9)))
 (let (($x3896 (= cell_1_7 8)))
 (let (($x4543 (= cell_1_7 7)))
 (let (($x10021 (= cell_1_7 6)))
 (let (($x6188 (= cell_1_7 5)))
 (let (($x9074 (= cell_1_7 4)))
 (let (($x4503 (= cell_1_7 3)))
 (let (($x3119 (= cell_1_7 2)))
 (let (($x9737 (= cell_1_7 1)))
 (or $x9737 $x3119 $x4503 $x9074 $x6188 $x10021 $x4543 $x3896 $x5906)))))))))))
(assert
 (let (($x5453 (= cell_2_7 9)))
 (let (($x5907 (= cell_2_7 8)))
 (let (($x2557 (= cell_2_7 7)))
 (let (($x6037 (= cell_2_7 6)))
 (let (($x3924 (= cell_2_7 5)))
 (let (($x2930 (= cell_2_7 4)))
 (let (($x4814 (= cell_2_7 3)))
 (let (($x559 (= cell_2_7 2)))
 (let (($x322 (= cell_2_7 1)))
 (or $x322 $x559 $x4814 $x2930 $x3924 $x6037 $x2557 $x5907 $x5453)))))))))))
(assert
 (let (($x1070 (= cell_3_7 9)))
 (let (($x8516 (= cell_3_7 8)))
 (let (($x2896 (= cell_3_7 7)))
 (let (($x2734 (= cell_3_7 6)))
 (let (($x7621 (= cell_3_7 5)))
 (let (($x1965 (= cell_3_7 4)))
 (let (($x3627 (= cell_3_7 3)))
 (let (($x6859 (= cell_3_7 2)))
 (let (($x9483 (= cell_3_7 1)))
 (or $x9483 $x6859 $x3627 $x1965 $x7621 $x2734 $x2896 $x8516 $x1070)))))))))))
(assert
 (let (($x3093 (= cell_4_7 9)))
 (let (($x6308 (= cell_4_7 8)))
 (let (($x9685 (= cell_4_7 7)))
 (let (($x3276 (= cell_4_7 6)))
 (let (($x9845 (= cell_4_7 5)))
 (let (($x995 (= cell_4_7 4)))
 (let (($x2679 (= cell_4_7 3)))
 (let (($x3476 (= cell_4_7 2)))
 (let (($x6443 (= cell_4_7 1)))
 (or $x6443 $x3476 $x2679 $x995 $x9845 $x3276 $x9685 $x6308 $x3093)))))))))))
(assert
 (let (($x6194 (= cell_5_7 9)))
 (let (($x3931 (= cell_5_7 8)))
 (let (($x5242 (= cell_5_7 7)))
 (let (($x3674 (= cell_5_7 6)))
 (let (($x8067 (= cell_5_7 5)))
 (let (($x6550 (= cell_5_7 4)))
 (let (($x8125 (= cell_5_7 3)))
 (let (($x5266 (= cell_5_7 2)))
 (let (($x7683 (= cell_5_7 1)))
 (or $x7683 $x5266 $x8125 $x6550 $x8067 $x3674 $x5242 $x3931 $x6194)))))))))))
(assert
 (let (($x3335 (= cell_6_7 9)))
 (let (($x4825 (= cell_6_7 8)))
 (let (($x8315 (= cell_6_7 7)))
 (let (($x4291 (= cell_6_7 6)))
 (let (($x6999 (= cell_6_7 5)))
 (let (($x3743 (= cell_6_7 4)))
 (let (($x3097 (= cell_6_7 3)))
 (let (($x6300 (= cell_6_7 2)))
 (let (($x3408 (= cell_6_7 1)))
 (or $x3408 $x6300 $x3097 $x3743 $x6999 $x4291 $x8315 $x4825 $x3335)))))))))))
(assert
 (let (($x1498 (= cell_7_7 9)))
 (let (($x4014 (= cell_7_7 8)))
 (let (($x5874 (= cell_7_7 7)))
 (let (($x1586 (= cell_7_7 6)))
 (let (($x3624 (= cell_7_7 5)))
 (let (($x5426 (= cell_7_7 4)))
 (let (($x5158 (= cell_7_7 3)))
 (let (($x10005 (= cell_7_7 2)))
 (let (($x2698 (= cell_7_7 1)))
 (or $x2698 $x10005 $x5158 $x5426 $x3624 $x1586 $x5874 $x4014 $x1498)))))))))))
(assert
 (let (($x5685 (= cell_8_7 9)))
 (let (($x3438 (= cell_8_7 8)))
 (let (($x3062 (= cell_8_7 7)))
 (let (($x1550 (= cell_8_7 6)))
 (let (($x2251 (= cell_8_7 5)))
 (let (($x1219 (= cell_8_7 4)))
 (let (($x9050 (= cell_8_7 3)))
 (let (($x5689 (= cell_8_7 2)))
 (let (($x10156 (= cell_8_7 1)))
 (or $x10156 $x5689 $x9050 $x1219 $x2251 $x1550 $x3062 $x3438 $x5685)))))))))))
(assert
 (let (($x1807 (= cell_9_7 9)))
 (let (($x8002 (= cell_9_7 8)))
 (let (($x2231 (= cell_9_7 7)))
 (let (($x4481 (= cell_9_7 6)))
 (let (($x4749 (= cell_9_7 5)))
 (let (($x7729 (= cell_9_7 4)))
 (let (($x3748 (= cell_9_7 3)))
 (let (($x8642 (= cell_9_7 2)))
 (let (($x6988 (= cell_9_7 1)))
 (or $x6988 $x8642 $x3748 $x7729 $x4749 $x4481 $x2231 $x8002 $x1807)))))))))))
(assert
 (let (($x8939 (= cell_1_8 9)))
 (let (($x6203 (= cell_1_8 8)))
 (let (($x6518 (= cell_1_8 7)))
 (let (($x8559 (= cell_1_8 6)))
 (let (($x7023 (= cell_1_8 5)))
 (let (($x4992 (= cell_1_8 4)))
 (let (($x2177 (= cell_1_8 3)))
 (let (($x9477 (= cell_1_8 2)))
 (let (($x5409 (= cell_1_8 1)))
 (or $x5409 $x9477 $x2177 $x4992 $x7023 $x8559 $x6518 $x6203 $x8939)))))))))))
(assert
 (let (($x10049 (= cell_2_8 9)))
 (let (($x3470 (= cell_2_8 8)))
 (let (($x2855 (= cell_2_8 7)))
 (let (($x674 (= cell_2_8 6)))
 (let (($x4583 (= cell_2_8 5)))
 (let (($x4408 (= cell_2_8 4)))
 (let (($x8196 (= cell_2_8 3)))
 (let (($x9271 (= cell_2_8 2)))
 (let (($x5402 (= cell_2_8 1)))
 (or $x5402 $x9271 $x8196 $x4408 $x4583 $x674 $x2855 $x3470 $x10049)))))))))))
(assert
 (let (($x9817 (= cell_3_8 9)))
 (let (($x952 (= cell_3_8 8)))
 (let (($x5778 (= cell_3_8 7)))
 (let (($x3187 (= cell_3_8 6)))
 (let (($x2320 (= cell_3_8 5)))
 (let (($x5823 (= cell_3_8 4)))
 (let (($x3634 (= cell_3_8 3)))
 (let (($x807 (= cell_3_8 2)))
 (let (($x6171 (= cell_3_8 1)))
 (or $x6171 $x807 $x3634 $x5823 $x2320 $x3187 $x5778 $x952 $x9817)))))))))))
(assert
 (let (($x2184 (= cell_4_8 9)))
 (let (($x8467 (= cell_4_8 8)))
 (let (($x9960 (= cell_4_8 7)))
 (let (($x10159 (= cell_4_8 6)))
 (let (($x8715 (= cell_4_8 5)))
 (let (($x6112 (= cell_4_8 4)))
 (let (($x1601 (= cell_4_8 3)))
 (let (($x10257 (= cell_4_8 2)))
 (let (($x7221 (= cell_4_8 1)))
 (or $x7221 $x10257 $x1601 $x6112 $x8715 $x10159 $x9960 $x8467 $x2184)))))))))))
(assert
 (let (($x6153 (= cell_5_8 9)))
 (let (($x2398 (= cell_5_8 8)))
 (let (($x8311 (= cell_5_8 7)))
 (let (($x7685 (= cell_5_8 6)))
 (let (($x4286 (= cell_5_8 5)))
 (let (($x5134 (= cell_5_8 4)))
 (let (($x6719 (= cell_5_8 3)))
 (let (($x7068 (= cell_5_8 2)))
 (let (($x5669 (= cell_5_8 1)))
 (or $x5669 $x7068 $x6719 $x5134 $x4286 $x7685 $x8311 $x2398 $x6153)))))))))))
(assert
 (let (($x1326 (= cell_6_8 9)))
 (let (($x156 (= cell_6_8 8)))
 (let (($x8700 (= cell_6_8 7)))
 (let (($x1418 (= cell_6_8 6)))
 (let (($x1390 (= cell_6_8 5)))
 (let (($x6943 (= cell_6_8 4)))
 (let (($x3877 (= cell_6_8 3)))
 (let (($x9268 (= cell_6_8 2)))
 (let (($x2144 (= cell_6_8 1)))
 (or $x2144 $x9268 $x3877 $x6943 $x1390 $x1418 $x8700 $x156 $x1326)))))))))))
(assert
 (let (($x10070 (= cell_7_8 9)))
 (let (($x4568 (= cell_7_8 8)))
 (let (($x10018 (= cell_7_8 7)))
 (let (($x171 (= cell_7_8 6)))
 (let (($x309 (= cell_7_8 5)))
 (let (($x5394 (= cell_7_8 4)))
 (let (($x4316 (= cell_7_8 3)))
 (let (($x10031 (= cell_7_8 2)))
 (let (($x1104 (= cell_7_8 1)))
 (or $x1104 $x10031 $x4316 $x5394 $x309 $x171 $x10018 $x4568 $x10070)))))))))))
(assert
 (let (($x7902 (= cell_8_8 9)))
 (let (($x3891 (= cell_8_8 8)))
 (let (($x7294 (= cell_8_8 7)))
 (let (($x5666 (= cell_8_8 6)))
 (let (($x746 (= cell_8_8 5)))
 (let (($x1573 (= cell_8_8 4)))
 (let (($x1130 (= cell_8_8 3)))
 (let (($x5437 (= cell_8_8 2)))
 (let (($x708 (= cell_8_8 1)))
 (or $x708 $x5437 $x1130 $x1573 $x746 $x5666 $x7294 $x3891 $x7902)))))))))))
(assert
 (let (($x6938 (= cell_9_8 9)))
 (let (($x1086 (= cell_9_8 8)))
 (let (($x5709 (= cell_9_8 7)))
 (let (($x9692 (= cell_9_8 6)))
 (let (($x1638 (= cell_9_8 5)))
 (let (($x9446 (= cell_9_8 4)))
 (let (($x2158 (= cell_9_8 3)))
 (let (($x9677 (= cell_9_8 2)))
 (let (($x2839 (= cell_9_8 1)))
 (or $x2839 $x9677 $x2158 $x9446 $x1638 $x9692 $x5709 $x1086 $x6938)))))))))))
(assert
 (let (($x9489 (= cell_1_9 9)))
 (let (($x9132 (= cell_1_9 8)))
 (let (($x1157 (= cell_1_9 7)))
 (let (($x5155 (= cell_1_9 6)))
 (let (($x10148 (= cell_1_9 5)))
 (let (($x3739 (= cell_1_9 4)))
 (let (($x340 (= cell_1_9 3)))
 (let (($x1615 (= cell_1_9 2)))
 (let (($x5252 (= cell_1_9 1)))
 (or $x5252 $x1615 $x340 $x3739 $x10148 $x5155 $x1157 $x9132 $x9489)))))))))))
(assert
 (let (($x5287 (= cell_2_9 9)))
 (let (($x7565 (= cell_2_9 8)))
 (let (($x1560 (= cell_2_9 7)))
 (let (($x6903 (= cell_2_9 6)))
 (let (($x4089 (= cell_2_9 5)))
 (let (($x2629 (= cell_2_9 4)))
 (let (($x7992 (= cell_2_9 3)))
 (let (($x5078 (= cell_2_9 2)))
 (let (($x5770 (= cell_2_9 1)))
 (or $x5770 $x5078 $x7992 $x2629 $x4089 $x6903 $x1560 $x7565 $x5287)))))))))))
(assert
 (let (($x8453 (= cell_3_9 9)))
 (let (($x4529 (= cell_3_9 8)))
 (let (($x9527 (= cell_3_9 7)))
 (let (($x8359 (= cell_3_9 6)))
 (let (($x5089 (= cell_3_9 5)))
 (let (($x6027 (= cell_3_9 4)))
 (let (($x3935 (= cell_3_9 3)))
 (let (($x177 (= cell_3_9 2)))
 (let (($x749 (= cell_3_9 1)))
 (or $x749 $x177 $x3935 $x6027 $x5089 $x8359 $x9527 $x4529 $x8453)))))))))))
(assert
 (let (($x1902 (= cell_4_9 9)))
 (let (($x3509 (= cell_4_9 8)))
 (let (($x7249 (= cell_4_9 7)))
 (let (($x1208 (= cell_4_9 6)))
 (let (($x345 (= cell_4_9 5)))
 (let (($x3671 (= cell_4_9 4)))
 (let (($x1593 (= cell_4_9 3)))
 (let (($x7253 (= cell_4_9 2)))
 (let (($x7028 (= cell_4_9 1)))
 (or $x7028 $x7253 $x1593 $x3671 $x345 $x1208 $x7249 $x3509 $x1902)))))))))))
(assert
 (let (($x9661 (= cell_5_9 9)))
 (let (($x656 (= cell_5_9 8)))
 (let (($x1077 (= cell_5_9 7)))
 (let (($x1797 (= cell_5_9 6)))
 (let (($x2740 (= cell_5_9 5)))
 (let (($x9545 (= cell_5_9 4)))
 (let (($x5554 (= cell_5_9 3)))
 (let (($x6278 (= cell_5_9 2)))
 (let (($x9749 (= cell_5_9 1)))
 (or $x9749 $x6278 $x5554 $x9545 $x2740 $x1797 $x1077 $x656 $x9661)))))))))))
(assert
 (let (($x3072 (= cell_6_9 9)))
 (let (($x8508 (= cell_6_9 8)))
 (let (($x1188 (= cell_6_9 7)))
 (let (($x6628 (= cell_6_9 6)))
 (let (($x2516 (= cell_6_9 5)))
 (let (($x4149 (= cell_6_9 4)))
 (let (($x10110 (= cell_6_9 3)))
 (let (($x5407 (= cell_6_9 2)))
 (let (($x980 (= cell_6_9 1)))
 (or $x980 $x5407 $x10110 $x4149 $x2516 $x6628 $x1188 $x8508 $x3072)))))))))))
(assert
 (let (($x2420 (= cell_7_9 9)))
 (let (($x273 (= cell_7_9 8)))
 (let (($x2464 (= cell_7_9 7)))
 (let (($x1525 (= cell_7_9 6)))
 (let (($x3726 (= cell_7_9 5)))
 (let (($x541 (= cell_7_9 4)))
 (let (($x3183 (= cell_7_9 3)))
 (let (($x5726 (= cell_7_9 2)))
 (let (($x3293 (= cell_7_9 1)))
 (or $x3293 $x5726 $x3183 $x541 $x3726 $x1525 $x2464 $x273 $x2420)))))))))))
(assert
 (let (($x2570 (= cell_8_9 9)))
 (let (($x5498 (= cell_8_9 8)))
 (let (($x1655 (= cell_8_9 7)))
 (let (($x7672 (= cell_8_9 6)))
 (let (($x316 (= cell_8_9 5)))
 (let (($x535 (= cell_8_9 4)))
 (let (($x6740 (= cell_8_9 3)))
 (let (($x2280 (= cell_8_9 2)))
 (let (($x4237 (= cell_8_9 1)))
 (or $x4237 $x2280 $x6740 $x535 $x316 $x7672 $x1655 $x5498 $x2570)))))))))))
(assert
 (let (($x5395 (= cell_9_9 9)))
 (let (($x892 (= cell_9_9 8)))
 (let (($x5578 (= cell_9_9 7)))
 (let (($x9422 (= cell_9_9 6)))
 (let (($x2009 (= cell_9_9 5)))
 (let (($x8530 (= cell_9_9 4)))
 (let (($x5085 (= cell_9_9 3)))
 (let (($x9720 (= cell_9_9 2)))
 (let (($x7151 (= cell_9_9 1)))
 (or $x7151 $x9720 $x5085 $x8530 $x2009 $x9422 $x5578 $x892 $x5395)))))))))))
(assert
 (and (distinct cell_1_1 cell_1_2 cell_1_3 cell_1_4 cell_1_5 cell_1_6 cell_1_7 cell_1_8 cell_1_9) true))
(assert
 (and (distinct cell_2_1 cell_2_2 cell_2_3 cell_2_4 cell_2_5 cell_2_6 cell_2_7 cell_2_8 cell_2_9) true))
(assert
 (and (distinct cell_3_1 cell_3_2 cell_3_3 cell_3_4 cell_3_5 cell_3_6 cell_3_7 cell_3_8 cell_3_9) true))
(assert
 (and (distinct cell_4_1 cell_4_2 cell_4_3 cell_4_4 cell_4_5 cell_4_6 cell_4_7 cell_4_8 cell_4_9) true))
(assert
 (and (distinct cell_5_1 cell_5_2 cell_5_3 cell_5_4 cell_5_5 cell_5_6 cell_5_7 cell_5_8 cell_5_9) true))
(assert
 (and (distinct cell_6_1 cell_6_2 cell_6_3 cell_6_4 cell_6_5 cell_6_6 cell_6_7 cell_6_8 cell_6_9) true))
(assert
 (and (distinct cell_7_1 cell_7_2 cell_7_3 cell_7_4 cell_7_5 cell_7_6 cell_7_7 cell_7_8 cell_7_9) true))
(assert
 (and (distinct cell_8_1 cell_8_2 cell_8_3 cell_8_4 cell_8_5 cell_8_6 cell_8_7 cell_8_8 cell_8_9) true))
(assert
 (and (distinct cell_9_1 cell_9_2 cell_9_3 cell_9_4 cell_9_5 cell_9_6 cell_9_7 cell_9_8 cell_9_9) true))
(assert
 (and (distinct cell_1_1 cell_2_1 cell_3_1 cell_4_1 cell_5_1 cell_6_1 cell_7_1 cell_8_1 cell_9_1) true))
(assert
 (and (distinct cell_1_2 cell_2_2 cell_3_2 cell_4_2 cell_5_2 cell_6_2 cell_7_2 cell_8_2 cell_9_2) true))
(assert
 (and (distinct cell_1_3 cell_2_3 cell_3_3 cell_4_3 cell_5_3 cell_6_3 cell_7_3 cell_8_3 cell_9_3) true))
(assert
 (and (distinct cell_1_4 cell_2_4 cell_3_4 cell_4_4 cell_5_4 cell_6_4 cell_7_4 cell_8_4 cell_9_4) true))
(assert
 (and (distinct cell_1_5 cell_2_5 cell_3_5 cell_4_5 cell_5_5 cell_6_5 cell_7_5 cell_8_5 cell_9_5) true))
(assert
 (and (distinct cell_1_6 cell_2_6 cell_3_6 cell_4_6 cell_5_6 cell_6_6 cell_7_6 cell_8_6 cell_9_6) true))
(assert
 (and (distinct cell_1_7 cell_2_7 cell_3_7 cell_4_7 cell_5_7 cell_6_7 cell_7_7 cell_8_7 cell_9_7) true))
(assert
 (and (distinct cell_1_8 cell_2_8 cell_3_8 cell_4_8 cell_5_8 cell_6_8 cell_7_8 cell_8_8 cell_9_8) true))
(assert
 (and (distinct cell_1_9 cell_2_9 cell_3_9 cell_4_9 cell_5_9 cell_6_9 cell_7_9 cell_8_9 cell_9_9) true))
(assert
 (and (distinct cell_1_1 cell_1_2 cell_1_3 cell_2_1 cell_2_2 cell_2_3 cell_3_1 cell_3_2 cell_3_3) true))
(assert
 (and (distinct cell_1_4 cell_1_5 cell_1_6 cell_2_4 cell_2_5 cell_2_6 cell_3_4 cell_3_5 cell_3_6) true))
(assert
 (and (distinct cell_1_7 cell_1_8 cell_1_9 cell_2_7 cell_2_8 cell_2_9 cell_3_7 cell_3_8 cell_3_9) true))
(assert
 (and (distinct cell_4_1 cell_4_2 cell_4_3 cell_5_1 cell_5_2 cell_5_3 cell_6_1 cell_6_2 cell_6_3) true))
(assert
 (and (distinct cell_4_4 cell_4_5 cell_4_6 cell_5_4 cell_5_5 cell_5_6 cell_6_4 cell_6_5 cell_6_6) true))
(assert
 (and (distinct cell_4_7 cell_4_8 cell_4_9 cell_5_7 cell_5_8 cell_5_9 cell_6_7 cell_6_8 cell_6_9) true))
(assert
 (and (distinct cell_7_1 cell_7_2 cell_7_3 cell_8_1 cell_8_2 cell_8_3 cell_9_1 cell_9_2 cell_9_3) true))
(assert
 (and (distinct cell_7_4 cell_7_5 cell_7_6 cell_8_4 cell_8_5 cell_8_6 cell_9_4 cell_9_5 cell_9_6) true))
(assert
 (and (distinct cell_7_7 cell_7_8 cell_7_9 cell_8_7 cell_8_8 cell_8_9 cell_9_7 cell_9_8 cell_9_9) true))
(assert
 (let (($x8749 (and (distinct cell_5_9 cell_6_8 cell_7_7 cell_8_6) true)))
 (let (($x2587 (and (distinct cell_2_9 cell_3_8 cell_4_7 cell_5_6 cell_6_5 cell_7_4 cell_8_3 cell_9_2) true)))
 (let (($x3149 (and (distinct cell_1_8 cell_2_7 cell_3_6 cell_4_5 cell_5_4 cell_6_3 cell_7_2 cell_8_1) true)))
 (let (($x3301 (and (distinct cell_1_5 cell_2_4 cell_3_3 cell_4_2) true)))
 (let (($x6497 (and (distinct cell_5_1 cell_6_2 cell_7_3 cell_8_4) true)))
 (let (($x3439 (and (distinct cell_2_1 cell_3_2 cell_4_3 cell_5_4 cell_6_5 cell_7_6 cell_8_7 cell_9_8) true)))
 (let (($x7849 (and (distinct cell_1_2 cell_2_3 cell_3_4 cell_4_5 cell_5_6 cell_6_7 cell_7_8 cell_8_9) true)))
 (let (($x10213 (and (distinct cell_1_5 cell_2_6 cell_3_7 cell_4_8) true)))
 (and $x10213 $x7849 $x3439 $x6497 $x3301 $x3149 $x2587 $x8749))))))))))
(assert
 (= cell_1_4 1))
(assert
 (= cell_2_8 1))
(assert
 (= cell_3_2 1))
(assert
 (= cell_4_5 1))
(assert
 (= cell_5_3 1))
(assert
 (= cell_6_9 1))
(assert
 (= cell_7_1 1))
(assert
 (= cell_8_6 1))
(assert
 (= cell_9_7 1))
(assert
 (= cell_1_3 2))
(assert
 (= cell_2_4 2))
(assert
 (= cell_3_7 2))
(assert
 (= cell_4_9 2))
(assert
 (= cell_5_1 2))
(check-sat)

